%nproc = 1 
%mem = 8 GB 

#opt HF 6-311G density=current nosymm

optimization

0 1
O 0.000000  0.000000  0.004316
H 0.000000 -0.763369 -0.580667
H 0.000000  0.763369 -0.580667


