%nproc = 1 
%mem = 8 GB 

#opt HF 6-311G density=current nosymm

optimization

0 1
H 0.00000 0.00000 0.00000
H 0.00000 0.00000 0.80000

